%
% Data from Mozart/Oz 
% http://www.mozart-oz.org/home/doc/fdt/node47.html#section.scheduling.house
% Building a house schediling problem.
%
% To be used with the MiniZinc model
% http://www.hakank.org/minizinc/building_a_house_model.mzn
% 

num_tasks = 10;

% tasks = [
%          "masonry",
%          "carpentry",
%          "plumbing",
%          "ceiling",
%          "roofing",
%          "painting",
%          "windows",
%          "facade",
%          "garden",
%          "moving"];

duration =  [35,15,40,15, 5,10, 5,10, 5, 5];
height   =  [ 1, 1, 1, 1, 1, 1, 1, 1, 1, 1];

num_precedences  = 14;
precedences = array2d(1..num_precedences, 1..2, 
[
% masonry,   carpentry, 
  1, 2,
% masonry,   plumbing, 
  1,3,
% masonry,   ceiling,
  1,4,
% carpentry, roofing,
  2,5,
% ceiling,   painting,
  4,6,
% roofing,   windows,
  5,7,
% roofing,   facade,
  5,8,
% plumbing,  facade,
  3,8,
% roofing,   garden,
  5,9,
% plumbing,  garden,
  3,9,
% windows,   moving,
  7,10,
% facade,    moving,
  8,10,
% garden,    moving,
  9,10,
% painting,  moving
  6,10
]);
